c User generated cnf file
p cnf 13 50
-2 8 13 0 
9 13 -10 0 
-8 11 3 0 
-9 12 9 0 
8 -13 9 0 
1 -13 8 0 
9 -11 5 0 
11 -12 1 0 
-7 6 12 0 
-10 11 2 0 
4 4 -12 0 
1 -6 6 0 
-7 1 5 0 
-10 6 10 0 
-10 2 9 0 
-13 10 7 0 
-6 12 5 0 
-8 1 13 0 
4 -5 3 0 
3 2 -2 0 
-2 9 11 0 
-9 5 5 0 
1 -10 1 0 
-5 7 8 0 
5 -12 6 0 
12 -6 10 0 
12 -8 10 0 
-13 13 3 0 
-8 7 13 0 
2 -9 2 0 
11 -12 2 0 
-3 7 5 0 
8 -3 10 0 
8 -2 6 0 
-9 5 3 0 
11 -12 5 0 
10 -5 13 0 
-13 11 7 0 
11 1 -3 0 
11 -5 13 0 
9 11 -11 0 
-10 11 4 0 
5 8 -2 0 
12 2 -1 0 
9 -13 8 0 
9 10 -10 0 
8 -6 1 0 
-7 1 11 0 
10 1 -3 0 
-2 7 9 0 
